p cnf 20 9
e 1 2 0
a 3 0
e 4 5 6 7 8 9 0
a 10 11 12 0
e 13 0
a 14 15 0
e 16 0
a 17 18 19 20 0
11 2 1 16 0
-1 -8 10 16 0
9 16 4 10 0
4 -17 -9 7 -2 0
-10 -14 -18 -11 -17 0
17 6 0
14 -16 -10 0
-17 13 15 -1 12 0
20 -4 1 0
